* #variable= 239 #constraint= 175
* Constraints for _ZNK12TiXmlComment5PrintEP8_IO_FILEi
min:  +400 x37 +4800 x97 +800 x168 +8600 x233 +400 x234 +400 x235 +400 x236 +400 x237 +400 x238 +400 x239 -1 x102 -1 x26 -1 x88 -1 x209;
* Callee-save Registers
 -1 x2 -1 x7 -1 x8 -1 x9 -1 x10 -1 x11 -1 x12 -1 x13 -1 x14 -1 x15 -1 x16 -1 x17 -1 x18 -1 x19 -1 x20 -1 x21 -1 x22 -1 x23 -1 x24 -1 x25 -1 x26 -1 x27 -1 x28 -1 x29 -1 x30 -1 x31 -1 x32 -1 x33 -1 x34 -1 x35 -1 x36 -1 x39 -1 x44 -1 x45 -1 x46 -1 x47 -1 x48 -1 x49 -1 x50 -1 x51 -1 x52 -1 x53 -1 x54 -1 x55 -1 x56 -1 x57 -1 x58 -1 x59 -1 x60 -1 x61 -1 x62 -1 x63 -1 x64 -1 x65 -1 x66 -1 x67 -1 x68 -1 x69 -1 x70 -1 x71 -1 x72 -1 x73 -1 x74 -1 x75 -1 x76 -1 x77 -1 x78 -1 x79 -1 x80 -1 x81 -1 x82 -1 x83 -1 x84 -1 x85 -1 x86 -1 x87 -1 x88 -1 x89 -1 x90 -1 x91 -1 x92 -1 x93 -1 x94 -1 x95 -1 x96 -1 x100 -1 x153 -1 x154 -1 x155 -1 x156 -1 x157 -1 x158 -1 x159 -1 x160 -1 x161 -1 x162 -1 x163 -1 x164 -1 x165 -1 x166 -1 x167 -1 x126 -1 x127 -1 x128 -1 x129 -1 x130 -1 x131 -1 x132 -1 x133 -1 x134 -1 x135 -1 x136 -1 x137 -1 x138 -1 x139 -1 x140 -1 x141 -1 x142 -1 x143 -1 x144 -1 x145 -1 x146 -1 x147 -1 x148 -1 x149 -1 x150 -1 x151 -1 x152 -1 x153 -1 x154 -1 x155 -1 x156 -1 x157 -1 x158 -1 x159 -1 x160 -1 x161 -1 x162 -1 x163 -1 x164 -1 x165 -1 x166 -1 x167 -1 x170 -1 x175 -1 x176 -1 x177 -1 x178 -1 x179 -1 x180 -1 x181 -1 x182 -1 x183 -1 x184 -1 x185 -1 x186 -1 x187 -1 x188 -1 x189 -1 x218 -1 x219 -1 x220 -1 x221 -1 x222 -1 x223 -1 x224 -1 x225 -1 x226 -1 x227 -1 x228 -1 x229 -1 x230 -1 x231 -1 x232 -1 x205 -1 x206 -1 x207 -1 x208 -1 x209 -1 x210 -1 x211 -1 x212 -1 x213 -1 x214 -1 x215 -1 x216 -1 x217 -1 x218 -1 x219 -1 x220 -1 x221 -1 x222 -1 x223 -1 x224 -1 x225 -1 x226 -1 x227 -1 x228 -1 x229 -1 x230 -1 x231 -1 x232 +202 x234 >= 0;
 -1 ~x2 -1 ~x7 -1 ~x8 -1 ~x9 -1 ~x10 -1 ~x11 -1 ~x12 -1 ~x13 -1 ~x14 -1 ~x15 -1 ~x16 -1 ~x17 -1 ~x18 -1 ~x19 -1 ~x20 -1 ~x21 -1 ~x22 -1 ~x23 -1 ~x24 -1 ~x25 -1 ~x26 -1 ~x27 -1 ~x28 -1 ~x29 -1 ~x30 -1 ~x31 -1 ~x32 -1 ~x33 -1 ~x34 -1 ~x35 -1 ~x36 -1 ~x39 -1 ~x44 -1 ~x45 -1 ~x46 -1 ~x47 -1 ~x48 -1 ~x49 -1 ~x50 -1 ~x51 -1 ~x52 -1 ~x53 -1 ~x54 -1 ~x55 -1 ~x56 -1 ~x57 -1 ~x58 -1 ~x59 -1 ~x60 -1 ~x61 -1 ~x62 -1 ~x63 -1 ~x64 -1 ~x65 -1 ~x66 -1 ~x67 -1 ~x68 -1 ~x69 -1 ~x70 -1 ~x71 -1 ~x72 -1 ~x73 -1 ~x74 -1 ~x75 -1 ~x76 -1 ~x77 -1 ~x78 -1 ~x79 -1 ~x80 -1 ~x81 -1 ~x82 -1 ~x83 -1 ~x84 -1 ~x85 -1 ~x86 -1 ~x87 -1 ~x88 -1 ~x89 -1 ~x90 -1 ~x91 -1 ~x92 -1 ~x93 -1 ~x94 -1 ~x95 -1 ~x96 -1 ~x100 -1 ~x153 -1 ~x154 -1 ~x155 -1 ~x156 -1 ~x157 -1 ~x158 -1 ~x159 -1 ~x160 -1 ~x161 -1 ~x162 -1 ~x163 -1 ~x164 -1 ~x165 -1 ~x166 -1 ~x167 -1 ~x126 -1 ~x127 -1 ~x128 -1 ~x129 -1 ~x130 -1 ~x131 -1 ~x132 -1 ~x133 -1 ~x134 -1 ~x135 -1 ~x136 -1 ~x137 -1 ~x138 -1 ~x139 -1 ~x140 -1 ~x141 -1 ~x142 -1 ~x143 -1 ~x144 -1 ~x145 -1 ~x146 -1 ~x147 -1 ~x148 -1 ~x149 -1 ~x150 -1 ~x151 -1 ~x152 -1 ~x153 -1 ~x154 -1 ~x155 -1 ~x156 -1 ~x157 -1 ~x158 -1 ~x159 -1 ~x160 -1 ~x161 -1 ~x162 -1 ~x163 -1 ~x164 -1 ~x165 -1 ~x166 -1 ~x167 -1 ~x170 -1 ~x175 -1 ~x176 -1 ~x177 -1 ~x178 -1 ~x179 -1 ~x180 -1 ~x181 -1 ~x182 -1 ~x183 -1 ~x184 -1 ~x185 -1 ~x186 -1 ~x187 -1 ~x188 -1 ~x189 -1 ~x218 -1 ~x219 -1 ~x220 -1 ~x221 -1 ~x222 -1 ~x223 -1 ~x224 -1 ~x225 -1 ~x226 -1 ~x227 -1 ~x228 -1 ~x229 -1 ~x230 -1 ~x231 -1 ~x232 -1 ~x205 -1 ~x206 -1 ~x207 -1 ~x208 -1 ~x209 -1 ~x210 -1 ~x211 -1 ~x212 -1 ~x213 -1 ~x214 -1 ~x215 -1 ~x216 -1 ~x217 -1 ~x218 -1 ~x219 -1 ~x220 -1 ~x221 -1 ~x222 -1 ~x223 -1 ~x224 -1 ~x225 -1 ~x226 -1 ~x227 -1 ~x228 -1 ~x229 -1 ~x230 -1 ~x231 -1 ~x232 +202 ~x234 >= -201;
 -1 x3 -1 x7 -1 x8 -1 x9 -1 x10 -1 x11 -1 x12 -1 x13 -1 x14 -1 x15 -1 x16 -1 x17 -1 x18 -1 x19 -1 x20 -1 x21 -1 x22 -1 x23 -1 x24 -1 x25 -1 x26 -1 x27 -1 x28 -1 x29 -1 x30 -1 x31 -1 x32 -1 x33 -1 x34 -1 x35 -1 x36 -1 x40 -1 x44 -1 x45 -1 x46 -1 x47 -1 x48 -1 x49 -1 x50 -1 x51 -1 x52 -1 x53 -1 x54 -1 x55 -1 x56 -1 x57 -1 x58 -1 x59 -1 x60 -1 x61 -1 x62 -1 x63 -1 x64 -1 x65 -1 x66 -1 x67 -1 x68 -1 x69 -1 x70 -1 x71 -1 x72 -1 x73 -1 x74 -1 x75 -1 x76 -1 x77 -1 x78 -1 x79 -1 x80 -1 x81 -1 x82 -1 x83 -1 x84 -1 x85 -1 x86 -1 x87 -1 x88 -1 x89 -1 x90 -1 x91 -1 x92 -1 x93 -1 x94 -1 x95 -1 x96 -1 x107 -1 x153 -1 x154 -1 x155 -1 x156 -1 x157 -1 x158 -1 x159 -1 x160 -1 x161 -1 x162 -1 x163 -1 x164 -1 x165 -1 x166 -1 x167 -1 x126 -1 x127 -1 x128 -1 x129 -1 x130 -1 x131 -1 x132 -1 x133 -1 x134 -1 x135 -1 x136 -1 x137 -1 x138 -1 x139 -1 x140 -1 x141 -1 x142 -1 x143 -1 x144 -1 x145 -1 x146 -1 x147 -1 x148 -1 x149 -1 x150 -1 x151 -1 x152 -1 x153 -1 x154 -1 x155 -1 x156 -1 x157 -1 x158 -1 x159 -1 x160 -1 x161 -1 x162 -1 x163 -1 x164 -1 x165 -1 x166 -1 x167 -1 x171 -1 x175 -1 x176 -1 x177 -1 x178 -1 x179 -1 x180 -1 x181 -1 x182 -1 x183 -1 x184 -1 x185 -1 x186 -1 x187 -1 x188 -1 x189 -1 x218 -1 x219 -1 x220 -1 x221 -1 x222 -1 x223 -1 x224 -1 x225 -1 x226 -1 x227 -1 x228 -1 x229 -1 x230 -1 x231 -1 x232 -1 x205 -1 x206 -1 x207 -1 x208 -1 x209 -1 x210 -1 x211 -1 x212 -1 x213 -1 x214 -1 x215 -1 x216 -1 x217 -1 x218 -1 x219 -1 x220 -1 x221 -1 x222 -1 x223 -1 x224 -1 x225 -1 x226 -1 x227 -1 x228 -1 x229 -1 x230 -1 x231 -1 x232 +202 x235 >= 0;
 -1 ~x3 -1 ~x7 -1 ~x8 -1 ~x9 -1 ~x10 -1 ~x11 -1 ~x12 -1 ~x13 -1 ~x14 -1 ~x15 -1 ~x16 -1 ~x17 -1 ~x18 -1 ~x19 -1 ~x20 -1 ~x21 -1 ~x22 -1 ~x23 -1 ~x24 -1 ~x25 -1 ~x26 -1 ~x27 -1 ~x28 -1 ~x29 -1 ~x30 -1 ~x31 -1 ~x32 -1 ~x33 -1 ~x34 -1 ~x35 -1 ~x36 -1 ~x40 -1 ~x44 -1 ~x45 -1 ~x46 -1 ~x47 -1 ~x48 -1 ~x49 -1 ~x50 -1 ~x51 -1 ~x52 -1 ~x53 -1 ~x54 -1 ~x55 -1 ~x56 -1 ~x57 -1 ~x58 -1 ~x59 -1 ~x60 -1 ~x61 -1 ~x62 -1 ~x63 -1 ~x64 -1 ~x65 -1 ~x66 -1 ~x67 -1 ~x68 -1 ~x69 -1 ~x70 -1 ~x71 -1 ~x72 -1 ~x73 -1 ~x74 -1 ~x75 -1 ~x76 -1 ~x77 -1 ~x78 -1 ~x79 -1 ~x80 -1 ~x81 -1 ~x82 -1 ~x83 -1 ~x84 -1 ~x85 -1 ~x86 -1 ~x87 -1 ~x88 -1 ~x89 -1 ~x90 -1 ~x91 -1 ~x92 -1 ~x93 -1 ~x94 -1 ~x95 -1 ~x96 -1 ~x107 -1 ~x153 -1 ~x154 -1 ~x155 -1 ~x156 -1 ~x157 -1 ~x158 -1 ~x159 -1 ~x160 -1 ~x161 -1 ~x162 -1 ~x163 -1 ~x164 -1 ~x165 -1 ~x166 -1 ~x167 -1 ~x126 -1 ~x127 -1 ~x128 -1 ~x129 -1 ~x130 -1 ~x131 -1 ~x132 -1 ~x133 -1 ~x134 -1 ~x135 -1 ~x136 -1 ~x137 -1 ~x138 -1 ~x139 -1 ~x140 -1 ~x141 -1 ~x142 -1 ~x143 -1 ~x144 -1 ~x145 -1 ~x146 -1 ~x147 -1 ~x148 -1 ~x149 -1 ~x150 -1 ~x151 -1 ~x152 -1 ~x153 -1 ~x154 -1 ~x155 -1 ~x156 -1 ~x157 -1 ~x158 -1 ~x159 -1 ~x160 -1 ~x161 -1 ~x162 -1 ~x163 -1 ~x164 -1 ~x165 -1 ~x166 -1 ~x167 -1 ~x171 -1 ~x175 -1 ~x176 -1 ~x177 -1 ~x178 -1 ~x179 -1 ~x180 -1 ~x181 -1 ~x182 -1 ~x183 -1 ~x184 -1 ~x185 -1 ~x186 -1 ~x187 -1 ~x188 -1 ~x189 -1 ~x218 -1 ~x219 -1 ~x220 -1 ~x221 -1 ~x222 -1 ~x223 -1 ~x224 -1 ~x225 -1 ~x226 -1 ~x227 -1 ~x228 -1 ~x229 -1 ~x230 -1 ~x231 -1 ~x232 -1 ~x205 -1 ~x206 -1 ~x207 -1 ~x208 -1 ~x209 -1 ~x210 -1 ~x211 -1 ~x212 -1 ~x213 -1 ~x214 -1 ~x215 -1 ~x216 -1 ~x217 -1 ~x218 -1 ~x219 -1 ~x220 -1 ~x221 -1 ~x222 -1 ~x223 -1 ~x224 -1 ~x225 -1 ~x226 -1 ~x227 -1 ~x228 -1 ~x229 -1 ~x230 -1 ~x231 -1 ~x232 +202 ~x235 >= -201;
 -1 x4 -1 x7 -1 x8 -1 x9 -1 x10 -1 x11 -1 x12 -1 x13 -1 x14 -1 x15 -1 x16 -1 x17 -1 x18 -1 x19 -1 x20 -1 x21 -1 x22 -1 x23 -1 x24 -1 x25 -1 x26 -1 x27 -1 x28 -1 x29 -1 x30 -1 x31 -1 x32 -1 x33 -1 x34 -1 x35 -1 x36 -1 x41 -1 x44 -1 x45 -1 x46 -1 x47 -1 x48 -1 x49 -1 x50 -1 x51 -1 x52 -1 x53 -1 x54 -1 x55 -1 x56 -1 x57 -1 x58 -1 x59 -1 x60 -1 x61 -1 x62 -1 x63 -1 x64 -1 x65 -1 x66 -1 x67 -1 x68 -1 x69 -1 x70 -1 x71 -1 x72 -1 x73 -1 x74 -1 x75 -1 x76 -1 x77 -1 x78 -1 x79 -1 x80 -1 x81 -1 x82 -1 x83 -1 x84 -1 x85 -1 x86 -1 x87 -1 x88 -1 x89 -1 x90 -1 x91 -1 x92 -1 x93 -1 x94 -1 x95 -1 x96 -1 x108 -1 x153 -1 x154 -1 x155 -1 x156 -1 x157 -1 x158 -1 x159 -1 x160 -1 x161 -1 x162 -1 x163 -1 x164 -1 x165 -1 x166 -1 x167 -1 x126 -1 x127 -1 x128 -1 x129 -1 x130 -1 x131 -1 x132 -1 x133 -1 x134 -1 x135 -1 x136 -1 x137 -1 x138 -1 x139 -1 x140 -1 x141 -1 x142 -1 x143 -1 x144 -1 x145 -1 x146 -1 x147 -1 x148 -1 x149 -1 x150 -1 x151 -1 x152 -1 x153 -1 x154 -1 x155 -1 x156 -1 x157 -1 x158 -1 x159 -1 x160 -1 x161 -1 x162 -1 x163 -1 x164 -1 x165 -1 x166 -1 x167 -1 x172 -1 x175 -1 x176 -1 x177 -1 x178 -1 x179 -1 x180 -1 x181 -1 x182 -1 x183 -1 x184 -1 x185 -1 x186 -1 x187 -1 x188 -1 x189 -1 x218 -1 x219 -1 x220 -1 x221 -1 x222 -1 x223 -1 x224 -1 x225 -1 x226 -1 x227 -1 x228 -1 x229 -1 x230 -1 x231 -1 x232 -1 x205 -1 x206 -1 x207 -1 x208 -1 x209 -1 x210 -1 x211 -1 x212 -1 x213 -1 x214 -1 x215 -1 x216 -1 x217 -1 x218 -1 x219 -1 x220 -1 x221 -1 x222 -1 x223 -1 x224 -1 x225 -1 x226 -1 x227 -1 x228 -1 x229 -1 x230 -1 x231 -1 x232 +202 x236 >= 0;
 -1 ~x4 -1 ~x7 -1 ~x8 -1 ~x9 -1 ~x10 -1 ~x11 -1 ~x12 -1 ~x13 -1 ~x14 -1 ~x15 -1 ~x16 -1 ~x17 -1 ~x18 -1 ~x19 -1 ~x20 -1 ~x21 -1 ~x22 -1 ~x23 -1 ~x24 -1 ~x25 -1 ~x26 -1 ~x27 -1 ~x28 -1 ~x29 -1 ~x30 -1 ~x31 -1 ~x32 -1 ~x33 -1 ~x34 -1 ~x35 -1 ~x36 -1 ~x41 -1 ~x44 -1 ~x45 -1 ~x46 -1 ~x47 -1 ~x48 -1 ~x49 -1 ~x50 -1 ~x51 -1 ~x52 -1 ~x53 -1 ~x54 -1 ~x55 -1 ~x56 -1 ~x57 -1 ~x58 -1 ~x59 -1 ~x60 -1 ~x61 -1 ~x62 -1 ~x63 -1 ~x64 -1 ~x65 -1 ~x66 -1 ~x67 -1 ~x68 -1 ~x69 -1 ~x70 -1 ~x71 -1 ~x72 -1 ~x73 -1 ~x74 -1 ~x75 -1 ~x76 -1 ~x77 -1 ~x78 -1 ~x79 -1 ~x80 -1 ~x81 -1 ~x82 -1 ~x83 -1 ~x84 -1 ~x85 -1 ~x86 -1 ~x87 -1 ~x88 -1 ~x89 -1 ~x90 -1 ~x91 -1 ~x92 -1 ~x93 -1 ~x94 -1 ~x95 -1 ~x96 -1 ~x108 -1 ~x153 -1 ~x154 -1 ~x155 -1 ~x156 -1 ~x157 -1 ~x158 -1 ~x159 -1 ~x160 -1 ~x161 -1 ~x162 -1 ~x163 -1 ~x164 -1 ~x165 -1 ~x166 -1 ~x167 -1 ~x126 -1 ~x127 -1 ~x128 -1 ~x129 -1 ~x130 -1 ~x131 -1 ~x132 -1 ~x133 -1 ~x134 -1 ~x135 -1 ~x136 -1 ~x137 -1 ~x138 -1 ~x139 -1 ~x140 -1 ~x141 -1 ~x142 -1 ~x143 -1 ~x144 -1 ~x145 -1 ~x146 -1 ~x147 -1 ~x148 -1 ~x149 -1 ~x150 -1 ~x151 -1 ~x152 -1 ~x153 -1 ~x154 -1 ~x155 -1 ~x156 -1 ~x157 -1 ~x158 -1 ~x159 -1 ~x160 -1 ~x161 -1 ~x162 -1 ~x163 -1 ~x164 -1 ~x165 -1 ~x166 -1 ~x167 -1 ~x172 -1 ~x175 -1 ~x176 -1 ~x177 -1 ~x178 -1 ~x179 -1 ~x180 -1 ~x181 -1 ~x182 -1 ~x183 -1 ~x184 -1 ~x185 -1 ~x186 -1 ~x187 -1 ~x188 -1 ~x189 -1 ~x218 -1 ~x219 -1 ~x220 -1 ~x221 -1 ~x222 -1 ~x223 -1 ~x224 -1 ~x225 -1 ~x226 -1 ~x227 -1 ~x228 -1 ~x229 -1 ~x230 -1 ~x231 -1 ~x232 -1 ~x205 -1 ~x206 -1 ~x207 -1 ~x208 -1 ~x209 -1 ~x210 -1 ~x211 -1 ~x212 -1 ~x213 -1 ~x214 -1 ~x215 -1 ~x216 -1 ~x217 -1 ~x218 -1 ~x219 -1 ~x220 -1 ~x221 -1 ~x222 -1 ~x223 -1 ~x224 -1 ~x225 -1 ~x226 -1 ~x227 -1 ~x228 -1 ~x229 -1 ~x230 -1 ~x231 -1 ~x232 +202 ~x236 >= -201;
 -1 x5 -1 x7 -1 x8 -1 x9 -1 x10 -1 x11 -1 x12 -1 x13 -1 x14 -1 x15 -1 x16 -1 x17 -1 x18 -1 x19 -1 x20 -1 x21 -1 x22 -1 x23 -1 x24 -1 x25 -1 x26 -1 x27 -1 x28 -1 x29 -1 x30 -1 x31 -1 x32 -1 x33 -1 x34 -1 x35 -1 x36 -1 x42 -1 x44 -1 x45 -1 x46 -1 x47 -1 x48 -1 x49 -1 x50 -1 x51 -1 x52 -1 x53 -1 x54 -1 x55 -1 x56 -1 x57 -1 x58 -1 x59 -1 x60 -1 x61 -1 x62 -1 x63 -1 x64 -1 x65 -1 x66 -1 x67 -1 x68 -1 x69 -1 x70 -1 x71 -1 x72 -1 x73 -1 x74 -1 x75 -1 x76 -1 x77 -1 x78 -1 x79 -1 x80 -1 x81 -1 x82 -1 x83 -1 x84 -1 x85 -1 x86 -1 x87 -1 x88 -1 x89 -1 x90 -1 x91 -1 x92 -1 x93 -1 x94 -1 x95 -1 x96 -1 x109 -1 x153 -1 x154 -1 x155 -1 x156 -1 x157 -1 x158 -1 x159 -1 x160 -1 x161 -1 x162 -1 x163 -1 x164 -1 x165 -1 x166 -1 x167 -1 x126 -1 x127 -1 x128 -1 x129 -1 x130 -1 x131 -1 x132 -1 x133 -1 x134 -1 x135 -1 x136 -1 x137 -1 x138 -1 x139 -1 x140 -1 x141 -1 x142 -1 x143 -1 x144 -1 x145 -1 x146 -1 x147 -1 x148 -1 x149 -1 x150 -1 x151 -1 x152 -1 x153 -1 x154 -1 x155 -1 x156 -1 x157 -1 x158 -1 x159 -1 x160 -1 x161 -1 x162 -1 x163 -1 x164 -1 x165 -1 x166 -1 x167 -1 x173 -1 x175 -1 x176 -1 x177 -1 x178 -1 x179 -1 x180 -1 x181 -1 x182 -1 x183 -1 x184 -1 x185 -1 x186 -1 x187 -1 x188 -1 x189 -1 x218 -1 x219 -1 x220 -1 x221 -1 x222 -1 x223 -1 x224 -1 x225 -1 x226 -1 x227 -1 x228 -1 x229 -1 x230 -1 x231 -1 x232 -1 x205 -1 x206 -1 x207 -1 x208 -1 x209 -1 x210 -1 x211 -1 x212 -1 x213 -1 x214 -1 x215 -1 x216 -1 x217 -1 x218 -1 x219 -1 x220 -1 x221 -1 x222 -1 x223 -1 x224 -1 x225 -1 x226 -1 x227 -1 x228 -1 x229 -1 x230 -1 x231 -1 x232 +202 x237 >= 0;
 -1 ~x5 -1 ~x7 -1 ~x8 -1 ~x9 -1 ~x10 -1 ~x11 -1 ~x12 -1 ~x13 -1 ~x14 -1 ~x15 -1 ~x16 -1 ~x17 -1 ~x18 -1 ~x19 -1 ~x20 -1 ~x21 -1 ~x22 -1 ~x23 -1 ~x24 -1 ~x25 -1 ~x26 -1 ~x27 -1 ~x28 -1 ~x29 -1 ~x30 -1 ~x31 -1 ~x32 -1 ~x33 -1 ~x34 -1 ~x35 -1 ~x36 -1 ~x42 -1 ~x44 -1 ~x45 -1 ~x46 -1 ~x47 -1 ~x48 -1 ~x49 -1 ~x50 -1 ~x51 -1 ~x52 -1 ~x53 -1 ~x54 -1 ~x55 -1 ~x56 -1 ~x57 -1 ~x58 -1 ~x59 -1 ~x60 -1 ~x61 -1 ~x62 -1 ~x63 -1 ~x64 -1 ~x65 -1 ~x66 -1 ~x67 -1 ~x68 -1 ~x69 -1 ~x70 -1 ~x71 -1 ~x72 -1 ~x73 -1 ~x74 -1 ~x75 -1 ~x76 -1 ~x77 -1 ~x78 -1 ~x79 -1 ~x80 -1 ~x81 -1 ~x82 -1 ~x83 -1 ~x84 -1 ~x85 -1 ~x86 -1 ~x87 -1 ~x88 -1 ~x89 -1 ~x90 -1 ~x91 -1 ~x92 -1 ~x93 -1 ~x94 -1 ~x95 -1 ~x96 -1 ~x109 -1 ~x153 -1 ~x154 -1 ~x155 -1 ~x156 -1 ~x157 -1 ~x158 -1 ~x159 -1 ~x160 -1 ~x161 -1 ~x162 -1 ~x163 -1 ~x164 -1 ~x165 -1 ~x166 -1 ~x167 -1 ~x126 -1 ~x127 -1 ~x128 -1 ~x129 -1 ~x130 -1 ~x131 -1 ~x132 -1 ~x133 -1 ~x134 -1 ~x135 -1 ~x136 -1 ~x137 -1 ~x138 -1 ~x139 -1 ~x140 -1 ~x141 -1 ~x142 -1 ~x143 -1 ~x144 -1 ~x145 -1 ~x146 -1 ~x147 -1 ~x148 -1 ~x149 -1 ~x150 -1 ~x151 -1 ~x152 -1 ~x153 -1 ~x154 -1 ~x155 -1 ~x156 -1 ~x157 -1 ~x158 -1 ~x159 -1 ~x160 -1 ~x161 -1 ~x162 -1 ~x163 -1 ~x164 -1 ~x165 -1 ~x166 -1 ~x167 -1 ~x173 -1 ~x175 -1 ~x176 -1 ~x177 -1 ~x178 -1 ~x179 -1 ~x180 -1 ~x181 -1 ~x182 -1 ~x183 -1 ~x184 -1 ~x185 -1 ~x186 -1 ~x187 -1 ~x188 -1 ~x189 -1 ~x218 -1 ~x219 -1 ~x220 -1 ~x221 -1 ~x222 -1 ~x223 -1 ~x224 -1 ~x225 -1 ~x226 -1 ~x227 -1 ~x228 -1 ~x229 -1 ~x230 -1 ~x231 -1 ~x232 -1 ~x205 -1 ~x206 -1 ~x207 -1 ~x208 -1 ~x209 -1 ~x210 -1 ~x211 -1 ~x212 -1 ~x213 -1 ~x214 -1 ~x215 -1 ~x216 -1 ~x217 -1 ~x218 -1 ~x219 -1 ~x220 -1 ~x221 -1 ~x222 -1 ~x223 -1 ~x224 -1 ~x225 -1 ~x226 -1 ~x227 -1 ~x228 -1 ~x229 -1 ~x230 -1 ~x231 -1 ~x232 +202 ~x237 >= -201;
 -1 x6 -1 x7 -1 x8 -1 x9 -1 x10 -1 x11 -1 x12 -1 x13 -1 x14 -1 x15 -1 x16 -1 x17 -1 x18 -1 x19 -1 x20 -1 x21 -1 x22 -1 x23 -1 x24 -1 x25 -1 x26 -1 x27 -1 x28 -1 x29 -1 x30 -1 x31 -1 x32 -1 x33 -1 x34 -1 x35 -1 x36 -1 x43 -1 x44 -1 x45 -1 x46 -1 x47 -1 x48 -1 x49 -1 x50 -1 x51 -1 x52 -1 x53 -1 x54 -1 x55 -1 x56 -1 x57 -1 x58 -1 x59 -1 x60 -1 x61 -1 x62 -1 x63 -1 x64 -1 x65 -1 x66 -1 x67 -1 x68 -1 x69 -1 x70 -1 x71 -1 x72 -1 x73 -1 x74 -1 x75 -1 x76 -1 x77 -1 x78 -1 x79 -1 x80 -1 x81 -1 x82 -1 x83 -1 x84 -1 x85 -1 x86 -1 x87 -1 x88 -1 x89 -1 x90 -1 x91 -1 x92 -1 x93 -1 x94 -1 x95 -1 x96 -1 x110 -1 x153 -1 x154 -1 x155 -1 x156 -1 x157 -1 x158 -1 x159 -1 x160 -1 x161 -1 x162 -1 x163 -1 x164 -1 x165 -1 x166 -1 x167 -1 x126 -1 x127 -1 x128 -1 x129 -1 x130 -1 x131 -1 x132 -1 x133 -1 x134 -1 x135 -1 x136 -1 x137 -1 x138 -1 x139 -1 x140 -1 x141 -1 x142 -1 x143 -1 x144 -1 x145 -1 x146 -1 x147 -1 x148 -1 x149 -1 x150 -1 x151 -1 x152 -1 x153 -1 x154 -1 x155 -1 x156 -1 x157 -1 x158 -1 x159 -1 x160 -1 x161 -1 x162 -1 x163 -1 x164 -1 x165 -1 x166 -1 x167 -1 x174 -1 x175 -1 x176 -1 x177 -1 x178 -1 x179 -1 x180 -1 x181 -1 x182 -1 x183 -1 x184 -1 x185 -1 x186 -1 x187 -1 x188 -1 x189 -1 x218 -1 x219 -1 x220 -1 x221 -1 x222 -1 x223 -1 x224 -1 x225 -1 x226 -1 x227 -1 x228 -1 x229 -1 x230 -1 x231 -1 x232 -1 x205 -1 x206 -1 x207 -1 x208 -1 x209 -1 x210 -1 x211 -1 x212 -1 x213 -1 x214 -1 x215 -1 x216 -1 x217 -1 x218 -1 x219 -1 x220 -1 x221 -1 x222 -1 x223 -1 x224 -1 x225 -1 x226 -1 x227 -1 x228 -1 x229 -1 x230 -1 x231 -1 x232 +202 x238 >= 0;
 -1 ~x6 -1 ~x7 -1 ~x8 -1 ~x9 -1 ~x10 -1 ~x11 -1 ~x12 -1 ~x13 -1 ~x14 -1 ~x15 -1 ~x16 -1 ~x17 -1 ~x18 -1 ~x19 -1 ~x20 -1 ~x21 -1 ~x22 -1 ~x23 -1 ~x24 -1 ~x25 -1 ~x26 -1 ~x27 -1 ~x28 -1 ~x29 -1 ~x30 -1 ~x31 -1 ~x32 -1 ~x33 -1 ~x34 -1 ~x35 -1 ~x36 -1 ~x43 -1 ~x44 -1 ~x45 -1 ~x46 -1 ~x47 -1 ~x48 -1 ~x49 -1 ~x50 -1 ~x51 -1 ~x52 -1 ~x53 -1 ~x54 -1 ~x55 -1 ~x56 -1 ~x57 -1 ~x58 -1 ~x59 -1 ~x60 -1 ~x61 -1 ~x62 -1 ~x63 -1 ~x64 -1 ~x65 -1 ~x66 -1 ~x67 -1 ~x68 -1 ~x69 -1 ~x70 -1 ~x71 -1 ~x72 -1 ~x73 -1 ~x74 -1 ~x75 -1 ~x76 -1 ~x77 -1 ~x78 -1 ~x79 -1 ~x80 -1 ~x81 -1 ~x82 -1 ~x83 -1 ~x84 -1 ~x85 -1 ~x86 -1 ~x87 -1 ~x88 -1 ~x89 -1 ~x90 -1 ~x91 -1 ~x92 -1 ~x93 -1 ~x94 -1 ~x95 -1 ~x96 -1 ~x110 -1 ~x153 -1 ~x154 -1 ~x155 -1 ~x156 -1 ~x157 -1 ~x158 -1 ~x159 -1 ~x160 -1 ~x161 -1 ~x162 -1 ~x163 -1 ~x164 -1 ~x165 -1 ~x166 -1 ~x167 -1 ~x126 -1 ~x127 -1 ~x128 -1 ~x129 -1 ~x130 -1 ~x131 -1 ~x132 -1 ~x133 -1 ~x134 -1 ~x135 -1 ~x136 -1 ~x137 -1 ~x138 -1 ~x139 -1 ~x140 -1 ~x141 -1 ~x142 -1 ~x143 -1 ~x144 -1 ~x145 -1 ~x146 -1 ~x147 -1 ~x148 -1 ~x149 -1 ~x150 -1 ~x151 -1 ~x152 -1 ~x153 -1 ~x154 -1 ~x155 -1 ~x156 -1 ~x157 -1 ~x158 -1 ~x159 -1 ~x160 -1 ~x161 -1 ~x162 -1 ~x163 -1 ~x164 -1 ~x165 -1 ~x166 -1 ~x167 -1 ~x174 -1 ~x175 -1 ~x176 -1 ~x177 -1 ~x178 -1 ~x179 -1 ~x180 -1 ~x181 -1 ~x182 -1 ~x183 -1 ~x184 -1 ~x185 -1 ~x186 -1 ~x187 -1 ~x188 -1 ~x189 -1 ~x218 -1 ~x219 -1 ~x220 -1 ~x221 -1 ~x222 -1 ~x223 -1 ~x224 -1 ~x225 -1 ~x226 -1 ~x227 -1 ~x228 -1 ~x229 -1 ~x230 -1 ~x231 -1 ~x232 -1 ~x205 -1 ~x206 -1 ~x207 -1 ~x208 -1 ~x209 -1 ~x210 -1 ~x211 -1 ~x212 -1 ~x213 -1 ~x214 -1 ~x215 -1 ~x216 -1 ~x217 -1 ~x218 -1 ~x219 -1 ~x220 -1 ~x221 -1 ~x222 -1 ~x223 -1 ~x224 -1 ~x225 -1 ~x226 -1 ~x227 -1 ~x228 -1 ~x229 -1 ~x230 -1 ~x231 -1 ~x232 +202 ~x238 >= -201;
 -1 x1 -1 x7 -1 x8 -1 x9 -1 x10 -1 x11 -1 x12 -1 x13 -1 x14 -1 x15 -1 x16 -1 x17 -1 x18 -1 x19 -1 x20 -1 x21 -1 x22 -1 x23 -1 x24 -1 x25 -1 x26 -1 x27 -1 x28 -1 x29 -1 x30 -1 x31 -1 x32 -1 x33 -1 x34 -1 x35 -1 x36 -1 x38 -1 x44 -1 x45 -1 x46 -1 x47 -1 x48 -1 x49 -1 x50 -1 x51 -1 x52 -1 x53 -1 x54 -1 x55 -1 x56 -1 x57 -1 x58 -1 x59 -1 x60 -1 x61 -1 x62 -1 x63 -1 x64 -1 x65 -1 x66 -1 x67 -1 x68 -1 x69 -1 x70 -1 x71 -1 x72 -1 x73 -1 x74 -1 x75 -1 x76 -1 x77 -1 x78 -1 x79 -1 x80 -1 x81 -1 x82 -1 x83 -1 x84 -1 x85 -1 x86 -1 x87 -1 x88 -1 x89 -1 x90 -1 x91 -1 x92 -1 x93 -1 x94 -1 x95 -1 x96 -1 x99 -1 x153 -1 x154 -1 x155 -1 x156 -1 x157 -1 x158 -1 x159 -1 x160 -1 x161 -1 x162 -1 x163 -1 x164 -1 x165 -1 x166 -1 x167 -1 x126 -1 x127 -1 x128 -1 x129 -1 x130 -1 x131 -1 x132 -1 x133 -1 x134 -1 x135 -1 x136 -1 x137 -1 x138 -1 x139 -1 x140 -1 x141 -1 x142 -1 x143 -1 x144 -1 x145 -1 x146 -1 x147 -1 x148 -1 x149 -1 x150 -1 x151 -1 x152 -1 x153 -1 x154 -1 x155 -1 x156 -1 x157 -1 x158 -1 x159 -1 x160 -1 x161 -1 x162 -1 x163 -1 x164 -1 x165 -1 x166 -1 x167 -1 x169 -1 x175 -1 x176 -1 x177 -1 x178 -1 x179 -1 x180 -1 x181 -1 x182 -1 x183 -1 x184 -1 x185 -1 x186 -1 x187 -1 x188 -1 x189 -1 x218 -1 x219 -1 x220 -1 x221 -1 x222 -1 x223 -1 x224 -1 x225 -1 x226 -1 x227 -1 x228 -1 x229 -1 x230 -1 x231 -1 x232 -1 x205 -1 x206 -1 x207 -1 x208 -1 x209 -1 x210 -1 x211 -1 x212 -1 x213 -1 x214 -1 x215 -1 x216 -1 x217 -1 x218 -1 x219 -1 x220 -1 x221 -1 x222 -1 x223 -1 x224 -1 x225 -1 x226 -1 x227 -1 x228 -1 x229 -1 x230 -1 x231 -1 x232 +202 x239 >= 0;
 -1 ~x1 -1 ~x7 -1 ~x8 -1 ~x9 -1 ~x10 -1 ~x11 -1 ~x12 -1 ~x13 -1 ~x14 -1 ~x15 -1 ~x16 -1 ~x17 -1 ~x18 -1 ~x19 -1 ~x20 -1 ~x21 -1 ~x22 -1 ~x23 -1 ~x24 -1 ~x25 -1 ~x26 -1 ~x27 -1 ~x28 -1 ~x29 -1 ~x30 -1 ~x31 -1 ~x32 -1 ~x33 -1 ~x34 -1 ~x35 -1 ~x36 -1 ~x38 -1 ~x44 -1 ~x45 -1 ~x46 -1 ~x47 -1 ~x48 -1 ~x49 -1 ~x50 -1 ~x51 -1 ~x52 -1 ~x53 -1 ~x54 -1 ~x55 -1 ~x56 -1 ~x57 -1 ~x58 -1 ~x59 -1 ~x60 -1 ~x61 -1 ~x62 -1 ~x63 -1 ~x64 -1 ~x65 -1 ~x66 -1 ~x67 -1 ~x68 -1 ~x69 -1 ~x70 -1 ~x71 -1 ~x72 -1 ~x73 -1 ~x74 -1 ~x75 -1 ~x76 -1 ~x77 -1 ~x78 -1 ~x79 -1 ~x80 -1 ~x81 -1 ~x82 -1 ~x83 -1 ~x84 -1 ~x85 -1 ~x86 -1 ~x87 -1 ~x88 -1 ~x89 -1 ~x90 -1 ~x91 -1 ~x92 -1 ~x93 -1 ~x94 -1 ~x95 -1 ~x96 -1 ~x99 -1 ~x153 -1 ~x154 -1 ~x155 -1 ~x156 -1 ~x157 -1 ~x158 -1 ~x159 -1 ~x160 -1 ~x161 -1 ~x162 -1 ~x163 -1 ~x164 -1 ~x165 -1 ~x166 -1 ~x167 -1 ~x126 -1 ~x127 -1 ~x128 -1 ~x129 -1 ~x130 -1 ~x131 -1 ~x132 -1 ~x133 -1 ~x134 -1 ~x135 -1 ~x136 -1 ~x137 -1 ~x138 -1 ~x139 -1 ~x140 -1 ~x141 -1 ~x142 -1 ~x143 -1 ~x144 -1 ~x145 -1 ~x146 -1 ~x147 -1 ~x148 -1 ~x149 -1 ~x150 -1 ~x151 -1 ~x152 -1 ~x153 -1 ~x154 -1 ~x155 -1 ~x156 -1 ~x157 -1 ~x158 -1 ~x159 -1 ~x160 -1 ~x161 -1 ~x162 -1 ~x163 -1 ~x164 -1 ~x165 -1 ~x166 -1 ~x167 -1 ~x169 -1 ~x175 -1 ~x176 -1 ~x177 -1 ~x178 -1 ~x179 -1 ~x180 -1 ~x181 -1 ~x182 -1 ~x183 -1 ~x184 -1 ~x185 -1 ~x186 -1 ~x187 -1 ~x188 -1 ~x189 -1 ~x218 -1 ~x219 -1 ~x220 -1 ~x221 -1 ~x222 -1 ~x223 -1 ~x224 -1 ~x225 -1 ~x226 -1 ~x227 -1 ~x228 -1 ~x229 -1 ~x230 -1 ~x231 -1 ~x232 -1 ~x205 -1 ~x206 -1 ~x207 -1 ~x208 -1 ~x209 -1 ~x210 -1 ~x211 -1 ~x212 -1 ~x213 -1 ~x214 -1 ~x215 -1 ~x216 -1 ~x217 -1 ~x218 -1 ~x219 -1 ~x220 -1 ~x221 -1 ~x222 -1 ~x223 -1 ~x224 -1 ~x225 -1 ~x226 -1 ~x227 -1 ~x228 -1 ~x229 -1 ~x230 -1 ~x231 -1 ~x232 +202 ~x239 >= -201;
* Move Conjunctions
* Valid Assignment
 +1 x1 +1 x2 +1 x3 +1 x4 +1 x5 +1 x6 +1 x37 = 1;
 +1 x38 +1 x39 +1 x40 +1 x41 +1 x42 +1 x43 +1 x97 = 1;
 +1 x98 +1 x99 +1 x100 +1 x101 +1 x102 +1 x103 +1 x104 +1 x105 +1 x106 +1 x107 +1 x108 +1 x109 +1 x110 +1 x168 = 1;
 +1 x169 +1 x170 +1 x171 +1 x172 +1 x173 +1 x174 +1 x233 = 1;
* Valid Usage
 -1 x37 +1 x7 +1 x8 +1 x9 +1 x10 +1 x11 +1 x12 +1 x13 +1 x14 +1 x15 +1 x16 +1 x17 +1 x18 +1 x19 +1 x20 +1 x21 = 0;
 -1 x37 +1 x22 +1 x23 +1 x24 +1 x25 +1 x26 +1 x27 +1 x28 +1 x29 +1 x30 +1 x31 +1 x32 +1 x33 +1 x34 +1 x35 +1 x36 = 0;
 -1 x97 +1 x44 +1 x45 +1 x46 +1 x47 +1 x48 +1 x49 +1 x50 +1 x51 +1 x52 +1 x53 +1 x54 +1 x55 +1 x56 +1 x57 +1 x58 = 0;
 -1 x97 +1 x59 +1 x60 +1 x61 +1 x62 +1 x63 +1 x64 +1 x65 +1 x66 +1 x67 +1 x68 +1 x69 +1 x70 +1 x71 = 0;
 -1 x97 +1 x72 +1 x73 +1 x74 +1 x75 +1 x76 +1 x77 +1 x78 +1 x79 +1 x80 +1 x81 +1 x82 = 0;
 -1 x97 +1 x83 +1 x84 +1 x85 +1 x86 +1 x87 +1 x88 +1 x89 +1 x90 +1 x91 +1 x92 +1 x93 +1 x94 +1 x95 +1 x96 = 0;
 -1 x168 +1 x153 +1 x154 +1 x155 +1 x156 +1 x157 +1 x158 +1 x159 +1 x160 +1 x161 +1 x162 +1 x163 +1 x164 +1 x165 +1 x166 +1 x167 = 0;
 -1 x168 +1 x126 +1 x127 +1 x128 +1 x129 +1 x130 +1 x131 +1 x132 +1 x133 +1 x134 +1 x135 +1 x136 +1 x137 = 0;
 -1 x168 +1 x138 +1 x139 +1 x140 +1 x141 +1 x142 +1 x143 +1 x144 +1 x145 +1 x146 +1 x147 +1 x148 +1 x149 +1 x150 +1 x151 +1 x152 = 0;
 -1 x168 +1 x153 +1 x154 +1 x155 +1 x156 +1 x157 +1 x158 +1 x159 +1 x160 +1 x161 +1 x162 +1 x163 +1 x164 +1 x165 +1 x166 +1 x167 = 0;
 -1 x233 +1 x175 +1 x176 +1 x177 +1 x178 +1 x179 +1 x180 +1 x181 +1 x182 +1 x183 +1 x184 +1 x185 +1 x186 +1 x187 +1 x188 +1 x189 = 0;
 -1 x233 +1 x218 +1 x219 +1 x220 +1 x221 +1 x222 +1 x223 +1 x224 +1 x225 +1 x226 +1 x227 +1 x228 +1 x229 +1 x230 +1 x231 +1 x232 = 0;
 -1 x233 +1 x205 +1 x206 +1 x207 +1 x208 +1 x209 +1 x210 +1 x211 +1 x212 +1 x213 +1 x214 +1 x215 +1 x216 +1 x217 = 0;
 -1 x233 +1 x218 +1 x219 +1 x220 +1 x221 +1 x222 +1 x223 +1 x224 +1 x225 +1 x226 +1 x227 +1 x228 +1 x229 +1 x230 +1 x231 +1 x232 = 0;
* Conflict Constraints
 +1 ~x38 +1 ~x1 >= 1;
 +1 ~x39 +1 ~x2 >= 1;
 +1 ~x40 +1 ~x3 >= 1;
 +1 ~x41 +1 ~x4 >= 1;
 +1 ~x42 +1 ~x5 >= 1;
 +1 ~x43 +1 ~x6 >= 1;
 +1 ~x99 +1 ~x38 >= 1;
 +1 ~x100 +1 ~x39 >= 1;
 +1 ~x107 +1 ~x40 >= 1;
 +1 ~x108 +1 ~x41 >= 1;
 +1 ~x109 +1 ~x42 >= 1;
 +1 ~x110 +1 ~x43 >= 1;
 +1 ~x169 +1 ~x1 >= 1;
 +1 ~x170 +1 ~x2 >= 1;
 +1 ~x171 +1 ~x3 >= 1;
 +1 ~x172 +1 ~x4 >= 1;
 +1 ~x173 +1 ~x5 >= 1;
 +1 ~x174 +1 ~x6 >= 1;
 +1 ~x169 +1 ~x38 >= 1;
 +1 ~x170 +1 ~x39 >= 1;
 +1 ~x171 +1 ~x40 >= 1;
 +1 ~x172 +1 ~x41 >= 1;
 +1 ~x173 +1 ~x42 >= 1;
 +1 ~x174 +1 ~x43 >= 1;
* Usage Constraints
 +1 ~x8 +1 ~x38 >= 1;
 +1 ~x9 +1 ~x39 >= 1;
 +1 ~x18 +1 ~x40 >= 1;
 +1 ~x19 +1 ~x41 >= 1;
 +1 ~x20 +1 ~x42 >= 1;
 +1 ~x21 +1 ~x43 >= 1;
 +1 ~x23 +1 ~x38 >= 1;
 +1 ~x24 +1 ~x39 >= 1;
 +1 ~x33 +1 ~x40 >= 1;
 +1 ~x34 +1 ~x41 >= 1;
 +1 ~x35 +1 ~x42 >= 1;
 +1 ~x36 +1 ~x43 >= 1;
 +1 ~x23 +1 ~x169 >= 1;
 +1 ~x24 +1 ~x170 >= 1;
 +1 ~x33 +1 ~x171 >= 1;
 +1 ~x34 +1 ~x172 >= 1;
 +1 ~x35 +1 ~x173 >= 1;
 +1 ~x36 +1 ~x174 >= 1;
 +1 ~x45 +1 ~x1 >= 1;
 +1 ~x46 +1 ~x2 >= 1;
 +1 ~x55 +1 ~x3 >= 1;
 +1 ~x56 +1 ~x4 >= 1;
 +1 ~x57 +1 ~x5 >= 1;
 +1 ~x58 +1 ~x6 >= 1;
 +1 ~x45 +1 ~x169 >= 1;
 +1 ~x46 +1 ~x170 >= 1;
 +1 ~x55 +1 ~x171 >= 1;
 +1 ~x56 +1 ~x172 >= 1;
 +1 ~x57 +1 ~x173 >= 1;
 +1 ~x58 +1 ~x174 >= 1;
 +1 ~x59 +1 ~x98 >= 1;
 +1 ~x60 +1 ~x99 >= 1;
 +1 ~x61 +1 ~x100 >= 1;
 +1 ~x62 +1 ~x101 >= 1;
 +1 ~x63 +1 ~x102 >= 1;
 +1 ~x64 +1 ~x103 >= 1;
 +1 ~x65 +1 ~x104 >= 1;
 +1 ~x66 +1 ~x105 >= 1;
 +1 ~x67 +1 ~x106 >= 1;
 +1 ~x68 +1 ~x107 >= 1;
 +1 ~x69 +1 ~x108 >= 1;
 +1 ~x70 +1 ~x109 >= 1;
 +1 ~x71 +1 ~x110 >= 1;
 +1 ~x73 +1 ~x1 >= 1;
 +1 ~x74 +1 ~x2 >= 1;
 +1 ~x79 +1 ~x3 >= 1;
 +1 ~x80 +1 ~x4 >= 1;
 +1 ~x81 +1 ~x5 >= 1;
 +1 ~x82 +1 ~x6 >= 1;
 +1 ~x73 +1 ~x169 >= 1;
 +1 ~x74 +1 ~x170 >= 1;
 +1 ~x79 +1 ~x171 >= 1;
 +1 ~x80 +1 ~x172 >= 1;
 +1 ~x81 +1 ~x173 >= 1;
 +1 ~x82 +1 ~x174 >= 1;
 +1 ~x84 +1 ~x169 >= 1;
 +1 ~x85 +1 ~x170 >= 1;
 +1 ~x93 +1 ~x171 >= 1;
 +1 ~x94 +1 ~x172 >= 1;
 +1 ~x95 +1 ~x173 >= 1;
 +1 ~x96 +1 ~x174 >= 1;
 +1 ~x154 +1 ~x38 >= 1;
 +1 ~x155 +1 ~x39 >= 1;
 +1 ~x164 +1 ~x40 >= 1;
 +1 ~x165 +1 ~x41 >= 1;
 +1 ~x166 +1 ~x42 >= 1;
 +1 ~x167 +1 ~x43 >= 1;
 +1 ~x139 +1 ~x1 >= 1;
 +1 ~x140 +1 ~x2 >= 1;
 +1 ~x149 +1 ~x3 >= 1;
 +1 ~x150 +1 ~x4 >= 1;
 +1 ~x151 +1 ~x5 >= 1;
 +1 ~x152 +1 ~x6 >= 1;
 +1 ~x139 +1 ~x38 >= 1;
 +1 ~x140 +1 ~x39 >= 1;
 +1 ~x149 +1 ~x40 >= 1;
 +1 ~x150 +1 ~x41 >= 1;
 +1 ~x151 +1 ~x42 >= 1;
 +1 ~x152 +1 ~x43 >= 1;
 +1 ~x154 +1 ~x38 >= 1;
 +1 ~x155 +1 ~x39 >= 1;
 +1 ~x164 +1 ~x40 >= 1;
 +1 ~x165 +1 ~x41 >= 1;
 +1 ~x166 +1 ~x42 >= 1;
 +1 ~x167 +1 ~x43 >= 1;
 +1 ~x176 +1 ~x1 >= 1;
 +1 ~x177 +1 ~x2 >= 1;
 +1 ~x186 +1 ~x3 >= 1;
 +1 ~x187 +1 ~x4 >= 1;
 +1 ~x188 +1 ~x5 >= 1;
 +1 ~x189 +1 ~x6 >= 1;
 +1 ~x176 +1 ~x38 >= 1;
 +1 ~x177 +1 ~x39 >= 1;
 +1 ~x186 +1 ~x40 >= 1;
 +1 ~x187 +1 ~x41 >= 1;
 +1 ~x188 +1 ~x42 >= 1;
 +1 ~x189 +1 ~x43 >= 1;
 +1 ~x219 +1 ~x1 >= 1;
 +1 ~x220 +1 ~x2 >= 1;
 +1 ~x229 +1 ~x3 >= 1;
 +1 ~x230 +1 ~x4 >= 1;
 +1 ~x231 +1 ~x5 >= 1;
 +1 ~x232 +1 ~x6 >= 1;
 +1 ~x219 +1 ~x38 >= 1;
 +1 ~x220 +1 ~x39 >= 1;
 +1 ~x229 +1 ~x40 >= 1;
 +1 ~x230 +1 ~x41 >= 1;
 +1 ~x231 +1 ~x42 >= 1;
 +1 ~x232 +1 ~x43 >= 1;
 +1 ~x219 +1 ~x1 >= 1;
 +1 ~x220 +1 ~x2 >= 1;
 +1 ~x229 +1 ~x3 >= 1;
 +1 ~x230 +1 ~x4 >= 1;
 +1 ~x231 +1 ~x5 >= 1;
 +1 ~x232 +1 ~x6 >= 1;
 +1 ~x219 +1 ~x38 >= 1;
 +1 ~x220 +1 ~x39 >= 1;
 +1 ~x229 +1 ~x40 >= 1;
 +1 ~x230 +1 ~x41 >= 1;
 +1 ~x231 +1 ~x42 >= 1;
 +1 ~x232 +1 ~x43 >= 1;
